* MPS file: KNAPSACK50
NAME          KNAPSACK50
ROWS
 N  OBJ
 L  R000000
COLUMNS
    MARK0000  'MARKER'                 'INTORG'
    x0        R000000   13
    x0        OBJ       -22
    x1        R000000   6
    x1        OBJ       -23
    x2        R000000   19
    x2        OBJ       -56
    x3        R000000   9
    x3        OBJ       -34
    x4        R000000   18
    x4        OBJ       -45
    x5        R000000   14
    x5        OBJ       -92
    x6        R000000   10
    x6        OBJ       -78
    x7        R000000   19
    x7        OBJ       -12
    x8        R000000   11
    x8        OBJ       -50
    x9        R000000   17
    x9        OBJ       -16
    x10       R000000   1
    x10       OBJ       -91
    x11       R000000   16
    x11       OBJ       -24
    x12       R000000   6
    x12       OBJ       -22
    x13       R000000   7
    x13       OBJ       -20
    x14       R000000   8
    x14       OBJ       -36
    x15       R000000   7
    x15       OBJ       -89
    x16       R000000   13
    x16       OBJ       -16
    x17       R000000   6
    x17       OBJ       -45
    x18       R000000   6
    x18       OBJ       -70
    x19       R000000   10
    x19       OBJ       -84
    x20       R000000   2
    x20       OBJ       -65
    x21       R000000   15
    x21       OBJ       -17
    x22       R000000   3
    x22       OBJ       -45
    x23       R000000   14
    x23       OBJ       -59
    x24       R000000   10
    x24       OBJ       -67
    x25       R000000   19
    x25       OBJ       -71
    x26       R000000   1
    x26       OBJ       -99
    x27       R000000   18
    x27       OBJ       -37
    x28       R000000   16
    x28       OBJ       -49
    x29       R000000   2
    x29       OBJ       -75
    x30       R000000   13
    x30       OBJ       -64
    x31       R000000   19
    x31       OBJ       -37
    x32       R000000   1
    x32       OBJ       -81
    x33       R000000   16
    x33       OBJ       -90
    x34       R000000   11
    x34       OBJ       -99
    x35       R000000   18
    x35       OBJ       -78
    x36       R000000   16
    x36       OBJ       -74
    x37       R000000   11
    x37       OBJ       -59
    x38       R000000   6
    x38       OBJ       -93
    x39       R000000   19
    x39       OBJ       -69
    x40       R000000   14
    x40       OBJ       -38
    x41       R000000   3
    x41       OBJ       -87
    x42       R000000   6
    x42       OBJ       -93
    x43       R000000   13
    x43       OBJ       -26
    x44       R000000   19
    x44       OBJ       -32
    x45       R000000   10
    x45       OBJ       -18
    x46       R000000   15
    x46       OBJ       -61
    x47       R000000   7
    x47       OBJ       -76
    x48       R000000   2
    x48       OBJ       -53
    x49       R000000   4
    x49       OBJ       -84
    MARK0002  'MARKER'                 'INTEND'
RHS
    RHS       R000000   215.6
BOUNDS
 BV BND       x0      
 BV BND       x1      
 BV BND       x2      
 BV BND       x3      
 BV BND       x4      
 BV BND       x5      
 BV BND       x6      
 BV BND       x7      
 BV BND       x8      
 BV BND       x9      
 BV BND       x10     
 BV BND       x11     
 BV BND       x12     
 BV BND       x13     
 BV BND       x14     
 BV BND       x15     
 BV BND       x16     
 BV BND       x17     
 BV BND       x18     
 BV BND       x19     
 BV BND       x20     
 BV BND       x21     
 BV BND       x22     
 BV BND       x23     
 BV BND       x24     
 BV BND       x25     
 BV BND       x26     
 BV BND       x27     
 BV BND       x28     
 BV BND       x29     
 BV BND       x30     
 BV BND       x31     
 BV BND       x32     
 BV BND       x33     
 BV BND       x34     
 BV BND       x35     
 BV BND       x36     
 BV BND       x37     
 BV BND       x38     
 BV BND       x39     
 BV BND       x40     
 BV BND       x41     
 BV BND       x42     
 BV BND       x43     
 BV BND       x44     
 BV BND       x45     
 BV BND       x46     
 BV BND       x47     
 BV BND       x48     
 BV BND       x49     
ENDATA
